SCIP Status        : solving was interrupted [time limit reached]
Total Time         :    3600.01
  solving          :    3600.00
  presolving       :       0.46 (included in solving)
  reading          :       0.01
  copying          :       1.22 (40 #copies) (minimal 0.00, maximal 0.08, average 0.03)
Original Problem   :
  Problem name     : bbbenchmark/pw05_100.2.cut
  Variables        : 101 (100 binary, 0 integer, 0 implicit integer, 1 continuous)
  Constraints      : 1 initial, 1 maximal
  Objective        : minimize, 1 non-zeros (abs.min = 1, abs.max = 1)
Presolved Problem  :
  Problem name     : t_bbbenchmark/pw05_100.2.cut
  Variables        : 1915 (100 binary, 0 integer, 1801 implicit integer, 14 continuous)
  Constraints      : 1841 initial, 7632 maximal
  Objective        : minimize, 1 non-zeros (abs.min = 1, abs.max = 1)
  Nonzeros         : 8731 constraint, 202 clique table
Presolvers         :   ExecTime  SetupTime  Calls  FixedVars   AggrVars   ChgTypes  ChgBounds   AddHoles    DelCons    AddCons   ChgSides   ChgCoefs
  boundshift       :       0.00       0.00      0          0          0          0          0          0          0          0          0          0
  convertinttobin  :       0.00       0.00      0          0          0          0          0          0          0          0          0          0
  domcol           :       0.00       0.00      1          0          0          0          0          0          0          0          0          0
  dualagg          :       0.00       0.00      0          0          0          0          0          0          0          0          0          0
  dualcomp         :       0.00       0.00      1          0          0          0          0          0          0          0          0          0
  dualinfer        :       0.00       0.00      0          0          0          0          0          0          0          0          0          0
  dualsparsify     :       0.00       0.00      1          0          0          0          0          0          0          0          0          0
  gateextraction   :       0.00       0.00      0          0          0          0          0          0          0          0          0          0
  implics          :       0.00       0.00      2          0          0          0          0          0          0          0          0          0
  inttobinary      :       0.00       0.00      0          0          0          0          0          0          0          0          0          0
  qpkktref         :       0.00       0.00      0          0          0          0          0          0          0          0          0          0
  redvub           :       0.00       0.00      0          0          0          0          0          0          0          0          0          0
  sparsify         :       0.00       0.00      1          0          0          0          0          0          0          0          0          0
  stuffing         :       0.00       0.00      0          0          0          0          0          0          0          0          0          0
  trivial          :       0.00       0.00      4          0          0          0          0          0          0          0          0          0
  tworowbnd        :       0.00       0.00      0          0          0          0          0          0          0          0          0          0
  dualfix          :       0.00       0.00      4          0          0          0          0          0          0          0          0          0
  genvbounds       :       0.00       0.00      0          0          0          0          0          0          0          0          0          0
  probing          :       0.33       0.00      1          0          0          0          0          0          0          0          0          0
  pseudoobj        :       0.00       0.00      1          0          0          0          1          0          0          0          0          0
  symmetry         :       0.00       0.00      0          0          0          0          0          0          0          0          0          0
  vbounds          :       0.00       0.00      1          0          0          0          0          0          0          0          0          0
  varbound         :       0.00       0.00      2          0          0          0          0          0          0          0          0          0
  and              :       0.00       0.01      2          0          0          0          0          0          0          0          0          0
  linear           :       0.01       0.00      2          0          0          0          0          0          0          0          0          0
  logicor          :       0.00       0.00      0          0          0          0          0          0          0          0          0          0
  bounddisjunction :       0.00       0.00      0          0          0          0          0          0          0          0          0          0
  nonlinear        :       0.11       0.00      5          0          0          0          1          0          0       1840          0          0
  benders          :       0.00       0.00      0          0          0          0          0          0          0          0          0          0
  components       :       0.00       0.00      1          0          0          0          0          0          0          0          0          0
  root node        :          -          -      -          0          -          -         15          -          -          -          -          -
Constraints        :     Number  MaxNumber  #Separate #Propagate    #EnfoLP    #EnfoRelax  #EnfoPS    #Check   #ResProp    Cutoffs    DomReds       Cuts    Applied      Conss   Children
  benderslp        :          0          0          0          0      39907          0          0       6599          0          0          0          0          0          0          0
  integral         :          0          0          0          0      39907          0          0       6599          0          0        903          0          0        823      79132
  varbound         :         13         13        148     362788          0          0          0         69          0          0      28133          0          0          0          0
  and              :       1801       1801      55933     410539          5          0          0         69     362047          9     316111      17410      15668          0          0
  linear           :         27+        29        148     410573          5          0          0         67        349          2     109835          0          0          0          0
  logicor          :          0+      5709          0      64580          0          0          0          0        607        208         23          0          0          0          0
  bounddisjunction :          0+       122          0      22442          0          0          0          0          1          9          0          0          0          0          0
  benders          :          0          0          0          0          5          0          0         33          0          0          0          0          0          0          0
  countsols        :          0          0          0          0          5          0          0         33          0          0          0          0          0          0          0
  components       :          0          0          0          0          0          0          0          0          0          0          0          0          0          0          0
Constraint Timings :  TotalTime  SetupTime   Separate  Propagate     EnfoLP     EnfoPS     EnfoRelax   Check    ResProp    SB-Prop
  benderslp        :       0.06       0.00       0.00       0.00       0.06       0.00       0.00       0.00       0.00       0.00
  integral         :      56.85       0.00       0.00       0.00      56.84       0.00       0.00       0.01       0.00       0.00
  varbound         :       0.53       0.00       0.00       0.50       0.00       0.00       0.00       0.00       0.00       0.03
  and              :      51.24       0.01      34.37      15.95       0.00       0.00       0.00       0.02       0.31       0.58
  linear           :       2.06       0.00       0.08       1.95       0.00       0.00       0.00       0.00       0.00       0.03
  logicor          :       5.03       0.00       0.00       5.02       0.00       0.00       0.00       0.00       0.00       0.01
  bounddisjunction :       0.13       0.00       0.00       0.13       0.00       0.00       0.00       0.00       0.00       0.00
  benders          :       0.00       0.00       0.00       0.00       0.00       0.00       0.00       0.00       0.00       0.00
  countsols        :       0.00       0.00       0.00       0.00       0.00       0.00       0.00       0.00       0.00       0.00
  components       :       0.05       0.00       0.00       0.05       0.00       0.00       0.00       0.00       0.00       0.00
Propagators        : #Propagate   #ResProp    Cutoffs    DomReds
  dualfix          :          4          0          0          0
  genvbounds       :          0          0          0          0
  nlobbt           :          0          0          0          0
  obbt             :          0          0          0          0
  probing          :          0          0          0          0
  pseudoobj        :     176409          0          0         15
  redcost          :     103413          0          0      27654
  rootredcost      :         15          0          0          0
  symmetry         :          0          0          0          0
  vbounds          :      54874          0          0          0
Propagator Timings :  TotalTime  SetupTime   Presolve  Propagate    ResProp    SB-Prop
  dualfix          :       0.00       0.00       0.00       0.00       0.00       0.00
  genvbounds       :       0.18       0.00       0.00       0.18       0.00       0.00
  nlobbt           :       0.00       0.00       0.00       0.00       0.00       0.00
  obbt             :       0.00       0.00       0.00       0.00       0.00       0.00
  probing          :       0.33       0.00       0.33       0.00       0.00       0.00
  pseudoobj        :       0.37       0.00       0.00       0.37       0.00       0.00
  redcost          :       6.57       0.00       0.00       6.57       0.00       0.00
  rootredcost      :       0.28       0.00       0.00       0.28       0.00       0.00
  symmetry         :       0.23       0.00       0.00       0.23       0.00       0.00
  vbounds          :       0.26       0.00       0.00       0.26       0.00       0.00
Conflict Analysis  :       Time      Calls    Success    DomReds  Conflicts   Literals    Reconvs ReconvLits   Dualrays   Nonzeros   LP Iters   (pool size: [10000,10000])
  propagation      :       0.01        226        160          -        248       68.2          0        0.0          -          -          -
  infeasible LP    :       0.00          8          8          -        381      146.2          0        0.0         12      167.7          0
  bound exceed. LP :      18.23       4360       3964          -     103226      106.0          2       45.5          0        0.0      45798
  strong branching :       0.00          0          0          -          0        0.0          0        0.0          -          -          0
  pseudo solution  :       0.00          0          0          -          0        0.0          0        0.0          -          -          -
  applied globally :       0.46          -          -          0      21518      120.7          -          -         12          -          -
  applied locally  :          -          -          -          0          0        0.0          -          -          0          -          -
Separators         :   ExecTime  SetupTime      Calls  RootCalls    Cutoffs    DomReds  FoundCuts ViaPoolAdd  DirectAdd    Applied ViaPoolApp  DirectApp      Conss
  cut pool         :       7.55          -      22793        174          -          -      47363    2394333          -          -          -          -          -    (maximal pool size:       3351)
  aggregation      :     592.21       0.00       9357        148          0          0        511        347          0        116        116          0          0
  > cmir           :          -          -          -          -          -          -          -        331          0        102        102          0          -
  > flowcover      :          -          -          -          -          -          -          -         16          0         14         14          0          -
  > knapsackcover  :          -          -          -          -          -          -          -          0          0          0          0          0          -
  cgmip            :       0.00       0.00          0          0          0          0          0          0          0          0          0          0          0
  clique           :       0.00       0.00        148        148          0          0          0          0          0          0          0          0          0
  closecuts        :       0.00       0.00          0          0          0          0          0          0          0          0          0          0          0
  convexproj       :       0.00       0.00          0          0          0          0          0          0          0          0          0          0          0
  disjunctive      :       0.00       0.00          0          0          0          0          0          0          0          0          0          0          0
  eccuts           :       0.00       0.00          0          0          0          0          0          0          0          0          0          0          0
  gauge            :       0.00       0.00          0          0          0          0          0          0          0          0          0          0          0
  gomory           :       0.00       0.00          0          0          0          0          0          0          0          0          0          0          0
  > gomorymi       :          -          -          -          -          -          -          -          0          0          0          0          0          -
  > strongcg       :          -          -          -          -          -          -          -          0          0          0          0          0          -
  impliedbounds    :       0.58       0.00       9357        148          0          0         88         13          0          7          7          0          0
  interlattice     :       0.67       0.00         80         80          0          0         80          0         80         75          0         75          0
  interminor       :       0.00       0.00          0          0          0          0          0          0          0          0          0          0          0
  intersub         :       0.65       0.00         40         40          0          0         40          0         40         40          0         40          0
  intobj           :       0.00       0.00          0          0          0          0          0          0          0          0          0          0          0
  mcf              :       0.01       0.00          1          1          0          0          0          0          0          0          0          0          0
  minor            :       0.02       0.00          0          0          0          0          0          0          0          0          0          0          0
  mixing           :       0.00       0.00       9357        148          0          0          0          0          0          0          0          0          0
  oddcycle         :       0.00       0.00          0          0          0          0          0          0          0          0          0          0          0
  rapidlearning    :       0.00       0.00          0          0          0          0          0          0          0          0          0          0          0
  rlt              :       0.00       0.00         10         10          0          0          0          0          0          0          0          0          0
  zerohalf         :      78.20       0.00       8219         20          0          0      46764    2393973          0     167508     167508          0          0
Cutselectors       :   ExecTime  SetupTime      Calls  RootCalls   Selected     Forced   Filtered  RootSelec   RootForc   RootFilt 
  hybrid           :       1.77       0.00      18802        147     183414          0    2228449        328          0         16
Pricers            :   ExecTime  SetupTime      Calls       Vars
  problem variables:       0.00          -          0          0
Branching Rules    :   ExecTime  SetupTime   BranchLP  BranchExt   BranchPS    Cutoffs    DomReds       Cuts      Conss   Children
  allfullstrong    :       0.00       0.00          0          0          0          0          0          0          0          0
  cloud            :       0.00       0.00          0          0          0          0          0          0          0          0
  distribution     :       0.00       0.00          0          0          0          0          0          0          0          0
  fullstrong       :       0.00       0.00          0          0          0          0          0          0          0          0
  inference        :       0.00       0.00          0          0          0          0          0          0          0          0
  leastinf         :       0.00       0.00          0          0          0          0          0          0          0          0
  lookahead        :       0.00       0.00          0          0          0          0          0          0          0          0
  mostinf          :       0.00       0.00          0          0          0          0          0          0          0          0
  multaggr         :       0.00       0.00          0          0          0          0          0          0          0          0
  nodereopt        :       0.00       0.00          0          0          0          0          0          0          0          0
  pscost           :       0.00       0.00          0          0          0          0          0          0          0          0
  random           :       0.00       0.00          0          0          0          0          0          0          0          0
  relpscost        :      56.73       0.00      39902          0          0          0        903          0        835      79132
  vanillafullstrong:       0.00       0.00          0          0          0          0          0          0          0          0
Primal Heuristics  :   ExecTime  SetupTime      Calls      Found       Best
  LP solutions     :       0.00          -          -          5          5
  relax solutions  :       0.00          -          -          0          0
  pseudo solutions :       0.00          -          -          0          0
  strong branching :       0.01          -          -          0          0
  actconsdiving    :       0.00       0.00          0          0          0
  adaptivediving   :       4.59       0.00         26          0          0
  alns             :       3.66       0.00         25         12         12
  bound            :       0.00       0.00          0          0          0
  clique           :       0.01       0.00          1          0          0
  coefdiving       :       0.00       0.00          0          0          0
  completesol      :       0.00       0.00          0          0          0
  conflictdiving   :      40.56       0.00        306          0          0
  crossover        :       0.19       0.00          2          0          0
  dins             :       0.00       0.00          0          0          0
  distributiondivin:      75.44       0.00        301          0          0
  dps              :       0.00       0.00          0          0          0
  dualval          :       0.00       0.00          0          0          0
  farkasdiving     :       0.00       0.00          0          0          0
  feaspump         :       0.18       0.00          1          1          1
  fixandinfer      :       0.00       0.00          0          0          0
  fracdiving       :      62.98       0.00        306          0          0
  gins             :       0.07       0.00          0          0          0
  guideddiving     :      48.63       0.00        306          1          1
  indicator        :       0.06       0.00          0          0          0
  indicatordiving  :       0.00       0.00          0          0          0
  intdiving        :       0.00       0.00          0          0          0
  intshifting      :       0.59       0.00         47          0          0
  linesearchdiving :      46.56       0.00        305          0          0
  localbranching   :       0.00       0.00          0          0          0
  locks            :       0.01       0.00          1          0          0
  lpface           :       0.07       0.00          0          0          0
  mpec             :      58.37       0.00         11          2          2
  multistart       :       0.00       0.00          0          0          0
  mutation         :       0.00       0.00          0          0          0
  nlpdiving        :       8.48       0.00          6          0          0
  objpscostdiving  :      41.55       0.00         26          2          0
  octane           :       0.00       0.00          0          0          0
  ofins            :       0.07       0.00          0          0          0
  oneopt           :       0.09       0.00         23          0          0
  padm             :       0.00       0.00          0          0          0
  proximity        :       0.00       0.00          0          0          0
  pscostdiving     :      62.48       0.00        306          2          2
  randrounding     :       1.10       0.00       6562          0          0
  rens             :       0.00       0.00          0          0          0
  reoptsols        :       0.00       0.00          0          0          0
  repair           :       0.00       0.00          0          0          0
  rins             :       1.04       0.00         12          0          0
  rootsoldiving    :      35.41       0.00         20          0          0
  rounding         :       1.02       0.00       3345          0          0
  shiftandpropagate:       0.00       0.00          0          0          0
  shifting         :      38.19       0.00      10008          7          6
  simplerounding   :       0.06       0.00          0          0          0
  subnlp           :      76.11       0.00          0          0          0
  trivial          :       0.01       0.00          2          2          2
  trivialnegation  :       0.00       0.00          0          0          0
  trustregion      :       0.00       0.00          0          0          0
  trysol           :       0.10       0.00          0          0          0
  twoopt           :       0.00       0.00          0          0          0
  undercover       :       1.93       0.00          1          1          1
  vbounds          :       0.00       0.00          0          0          0
  veclendiving     :      44.95       0.00        305          0          0
  zeroobj          :       0.00       0.00          0          0          0
  zirounding       :       0.22       0.00       1000          0          0
  other solutions  :          -          -          -          0          -
Diving (single)    :      Calls      Nodes   LP Iters Backtracks  Conflicts   MinDepth   MaxDepth   AvgDepth  RoundSols  NLeafSols  MinSolDpt  MaxSolDpt  AvgSolDpt
  actconsdiving    :          0          -          -          -          -          -          -          -          -          -          -          -          -
  coefdiving       :          0          -          -          -          -          -          -          -          -          -          -          -          -
  conflictdiving   :        306      12937     359939        309      22532         53         80       59.9          0          -          -          -          -
  distributiondivin:        301      10587     455732        329       9856         45         69       53.3          0          -          -          -          -
  farkasdiving     :          0          -          -          -          -          -          -          -          -          -          -          -          -
  fracdiving       :        306      54985     418293        123       2106         57        608      198.2          0          -          -          -          -
  guideddiving     :        306      42469     344267         54       1626         56        483      159.2          0          1        140        140      140.0
  indicatordiving  :          0          -          -          -          -          -          -          -          -          -          -          -          -
  linesearchdiving :        305      12985     344929        329      18244         43         97       62.7          0          -          -          -          -
  pscostdiving     :        306      12969     452650        330      14899         49         75       60.4          0          2         63         74       68.5
  veclendiving     :        305      12971     319770        299      23831         49         89       60.6          0          -          -          -          -
Diving (adaptive)  :      Calls      Nodes   LP Iters Backtracks  Conflicts   MinDepth   MaxDepth   AvgDepth  RoundSols  NLeafSols  MinSolDpt  MaxSolDpt  AvgSolDpt
  actconsdiving    :          4        138       5966          4        146         48         58       51.5          0          -          -          -          -
  coefdiving       :          7        307       7822          6        460         54         89       61.4          0          -          -          -          -
  conflictdiving   :          0          -          -          -          -          -          -          -          -          -          -          -          -
  distributiondivin:          0          -          -          -          -          -          -          -          -          -          -          -          -
  farkasdiving     :          0          -          -          -          -          -          -          -          -          -          -          -          -
  fracdiving       :          2        278       3366          2         60        131        175      153.0          0          -          -          -          -
  guideddiving     :          4        645       5989          0          0        123        222      174.8          0          -          -          -          -
  indicatordiving  :          0          -          -          -          -          -          -          -          -          -          -          -          -
  linesearchdiving :          3        106       3361          3        190         51         54       53.0          0          -          -          -          -
  pscostdiving     :          2         88       3510          2        109         60         64       62.0          0          -          -          -          -
  veclendiving     :          4        166       4502          4        319         54         64       58.2          0          -          -          -          -
Neighborhoods      :      Calls  SetupTime  SolveTime SolveNodes       Sols       Best       Exp3  EpsGreedy        UCB TgtFixRate  Opt  Inf Node Stal  Sol  Usr Othr Actv
  rens             :          3       0.22       0.07          3          0          0    0.00000   -1.00000    0.53954      0.437    0    3    0    0    0    0    0    1
  rins             :          8       0.50       0.87        643          8          8    0.00000   -1.00000    0.53393      0.762    0    1    0    5    2    0    0    1
  mutation         :          3       0.20       0.37        241          2          2    0.00000   -1.00000    0.48388      0.662    1    1    0    1    0    0    0    1
  localbranching   :          1       0.03       0.01         25          0          0    0.00000   -1.00000    0.54720      0.700    0    1    0    0    0    0    0    1
  crossover        :          6       0.32       0.62        126          2          2    0.00000   -1.00000    0.50525      0.506    1    3    0    2    0    0    0    1
  proximity        :          1       0.03       0.01         31          0          0    0.00000   -1.00000    0.54120      0.700    0    1    0    0    0    0    0    1
  zeroobjective    :          2       0.14       0.06         95          0          0    0.00000   -1.00000    0.46555      0.850    0    1    0    1    0    0    0    1
  dins             :          1       0.03       0.01         25          0          0    0.00000   -1.00000    0.54720      0.700    0    1    0    0    0    0    0    1
  trustregion      :          0       0.00       0.00          0          0          0    0.00000   -1.00000    1.00000      0.900    0    0    0    0    0    0    0    0
Expressions        :   #IntEval  IntEvalTi   #RevProp  RevPropTi    DomReds    Cutoffs  #Estimate  EstimTime  Branching  #Simplify SimplifyTi Simplified
  pow              :          0       0.00          0       0.00          0          0          0       0.00          0          0       0.00          0
  prod             :       9900       0.00          0       0.00          0          0          0       0.00          0       6751       0.01          0
  sum              :          8       0.00          2       0.00          0          0          0       0.00          0          3       0.01          2
  var              :       6554       0.00          0       0.00          0          0          0       0.00          0      15619       0.00          0
  varidx           :          0       0.00          0       0.00          0          0          0       0.00          0          0       0.00          0
LP                 :       Time      Calls Iterations  Iter/call   Iter/sec  Time-0-It Calls-0-It    ItLimit
  primal LP        :     131.25       8176          0       0.00       0.00     131.19       8176
  dual LP          :    1926.66      88071    8802319     105.69    4568.69       2.19       4787
  lex dual LP      :       0.00          0          0       0.00          -
  barrier LP       :       0.00          0          0       0.00          -       0.00          0
  resolve instable :       0.00          0          0       0.00          -
  diving/probing LP:     399.12       9721    3080920     316.93    7719.28
  strong branching :      37.82       2132     273918     128.48    7242.68          -          -        163
    (at root node) :          -         19       6236     328.21          -
  conflict analysis:       8.65       4596      45798       9.96    5294.57
NLP relaxation     :
  solve time       :       8.12 (9 calls)
  convexity        :  nonconvex (40 linear rows, 0 convex ineq., 0 nonconvex ineq., 1801 nonlinear eq. or two-sided ineq.)
NLP Solvers        :  #Problems  ProblemTi    #Solves  SolveTime      #Iter  Time/Iter      #Okay #TimeLimit #IterLimit #LObjLimit #Interrupt  #NumError #EvalError  #OutOfMem #LicenseEr #OtherTerm   #GlobOpt    #LocOpt  #Feasible #LocInfeas #GlobInfea #Unbounded   #Unknown
  ipopt            :         12       3.10         40      68.31       1561       0.04         38          0          2          0          0          0          0          0          0          0          0         20          1         12          0          0          7
B&B Tree           :
  number of runs   :          1
  nodes            :      64193 (39566 internal, 24627 leaves)
  feasible leaves  :          5
  infeas. leaves   :         21
  objective leaves :      24600
  nodes (total)    :      64193 (39566 internal, 24627 leaves)
  nodes left       :      14716
  max depth        :         56
  max depth (total):         56
  backtracks       :      16140 (25.1%)
  early backtracks :          0 (0.0%)
  nodes exc. ref.  :          0 (0.0%)
  delayed cutoffs  :          4
  repropagations   :         19 (171 domain reductions, 0 cutoffs)
  avg switch length:       6.17
  switching time   :     146.12
Estim. Tree Size   :     128834
Estimation Tree    : 79133 nodes (64417 visited, 39566 internal, 24851 leaves, 14716 open), weight: 0.0000 completed 0.1053
Estimations        :      estim      value      trend resolution     smooth
  wbe              : 4483173774589          -          -          -          -
  tree-profile     :         -1          -          -          -          -
  gap              :    3378194    0.69739    0.00001         32    3215382
  tree-weight      :     128834    0.00000    0.00000         32     127638
  leaf-frequency   :     254372    0.38578    0.00004         32     252006
  ssg              :    5234128    0.83377   -0.00001         32    5038652
  open-nodes       :     128834 14716.00000    2.96288         32     127638
Root Node          :
  First LP value   : -5.45898989898991e+00
  First LP Iters   :       1707 (9483.33 Iter/sec)
  First LP Time    :       0.18
  Final Dual Bound : -5.17755080540592e+00
  Final Root Iters :       4994
  Root LP Estimate : -1.69902059243258e+00
Solution           :
  Solutions found  :         35 (32 improvements)
  First Solution   : +1.00000000000000e+05   (in run 1, after 0 nodes, 0.03 seconds, depth 0, found by <trivial>)
  Gap First Sol.   :   infinite
  Gap Last Sol.    :      44.99 %
  Primal Bound     : -3.17494949494949e+00   (in run 1, after 42512 nodes, 1707.77 seconds, depth 40, found by <alns>)
  Dual Bound       : -4.55260497633082e+00
  Gap              :      43.39 %
Integrals          :      Total       Avg%
  primal-dual      :  115721.31      32.14
  primal-ref       :          -          - (not evaluated)
  dual-ref         :          -          - (not evaluated)
